(set-logic HORN)
(declare-fun rec_array_compare@summary ((Array Int Int) Int (Array Int Int) Int Int Int Bool ) Bool)
(declare-fun rec_array_compare@pre ((Array Int Int) Int (Array Int Int) Int Int Int ) Bool)
(assert (forall ((array1@0 (Array Int Int))(.array1!size@0 Int)(array2@0 (Array Int Int))(.array2!size@0 Int)(i@0 Int)(N@0 Int)(!return@0 Bool)) (=> (and (rec_array_compare@pre |array1@0| |.array1!size@0| |array2@0| |.array2!size@0| |i@0| |N@0|) (< |i@0| |N@0|) (not (= (select |array1@0| |i@0|) (select |array2@0| |i@0|))) (= |!return@0| false)) (rec_array_compare@summary |array1@0| |.array1!size@0| |array2@0| |.array2!size@0| |i@0| |N@0| |!return@0|))))
(assert (forall ((N@0 Int)(array1@0 (Array Int Int))(array2@0 (Array Int Int))) (=> (> |N@0| 0) (rec_array_compare@pre |array1@0| |N@0| |array2@0| |N@0| 0 |N@0|))))
(assert (forall ((!rtrnd1 Bool)(N@0 Int)(array1@0 (Array Int Int))(array2@0 (Array Int Int))(equal@0 Bool)) (=> (and (rec_array_compare@summary |array1@0| |N@0| |array2@0| |N@0| 0 |N@0| !rtrnd1) (rec_array_compare@pre |array1@0| |N@0| |array2@0| |N@0| 0 |N@0|) (> |N@0| 0) (= |equal@0| !rtrnd1) (= |equal@0| true) (not (forall ((k@0 Int)) (=> (and (<= 0 |k@0|) (< |k@0| |N@0|)) (= (select |array1@0| |k@0|) (select |array2@0| |k@0|)))))) false)))
(assert (forall ((array1@0 (Array Int Int))(.array1!size@0 Int)(array2@0 (Array Int Int))(.array2!size@0 Int)(i@0 Int)(N@0 Int)(!return@0 Bool)) (=> (and (rec_array_compare@pre |array1@0| |.array1!size@0| |array2@0| |.array2!size@0| |i@0| |N@0|) (= |!return@0| true) (not (< |i@0| |N@0|))) (rec_array_compare@summary |array1@0| |.array1!size@0| |array2@0| |.array2!size@0| |i@0| |N@0| |!return@0|))))
(assert (forall ((array1@0 (Array Int Int))(.array1!size@0 Int)(array2@0 (Array Int Int))(.array2!size@0 Int)(i@0 Int)(N@0 Int)) (=> (and (rec_array_compare@pre |array1@0| |.array1!size@0| |array2@0| |.array2!size@0| |i@0| |N@0|) (< |i@0| |N@0|) (not (not (= (select |array1@0| |i@0|) (select |array2@0| |i@0|))))) (rec_array_compare@pre |array1@0| |.array1!size@0| |array2@0| |.array2!size@0| (+ |i@0| 1) |N@0|))))
(assert (forall ((!rtrnd0 Bool)(array1@0 (Array Int Int))(.array1!size@0 Int)(array2@0 (Array Int Int))(.array2!size@0 Int)(i@0 Int)(N@0 Int)(!return@0 Bool)) (=> (and (rec_array_compare@pre |array1@0| |.array1!size@0| |array2@0| |.array2!size@0| |i@0| |N@0|) (rec_array_compare@summary |array1@0| |.array1!size@0| |array2@0| |.array2!size@0| (+ |i@0| 1) |N@0| !rtrnd0) (rec_array_compare@pre |array1@0| |.array1!size@0| |array2@0| |.array2!size@0| (+ |i@0| 1) |N@0|) (= |!return@0| !rtrnd0) (< |i@0| |N@0|) (not (not (= (select |array1@0| |i@0|) (select |array2@0| |i@0|))))) (rec_array_compare@summary |array1@0| |.array1!size@0| |array2@0| |.array2!size@0| |i@0| |N@0| |!return@0|))))
(check-sat)